letting n =  10
letting blocks =  [[1, 1], [1, 3], [1, 8], [2, 1], [2, 6], [2, 9], [2, 10], [3, 3], [3, 8], [4, 1], [4, 6], [4, 9], [4, 10], [5, 4], [6, 3], [6, 8], [6, 9], [7, 1], [8, 3], [8, 4], [8, 6], [9, 1], [9, 4], [9, 8], [9, 9], [10, 1], [10, 3], [10, 7], [10, 8], [10, 10]]
